decision_x1=[0,2];
decision_x2=[0,2];
decision_x3=[0,2];
decision_x4=[0,2];
decision_x5=[0,2];
decision_x6=[0,2];
decision_x7=[0,2];
decision_x8=[0,2];
decision_x9=[0,2];
decision_x10=[0,2];
random_y1=[0,2];
random_y2=[0,2];
random_y3=[0,2];
random_y4=[0,2];
random_y5=[0,2];
constraint_x3_x1=[
0,0,0.64|
0,1,7.4|
0,2,6.9|
1,0,8.4|
1,1,8.3|
1,2,1.4|
2,0,8.3|
2,1,4.4|
2,2,1.9|
];
constraint_x4_x2=[
0,0,6.4|
0,1,7.1|
0,2,0.028|
1,0,3.1|
1,1,9.9|
1,2,4.5|
2,0,3.2|
2,1,5.8|
2,2,9.4|
];
constraint_x5_x3=[
0,0,9.4|
0,1,7.6|
0,2,7.3|
1,0,1.7|
1,1,3.4|
1,2,4.6|
2,0,8|
2,1,7.6|
2,2,4.8|
];
constraint_x5_x4=[
0,0,2.7|
0,1,9.4|
0,2,0.15|
1,0,7.6|
1,1,7.7|
1,2,9.2|
2,0,5|
2,1,5.2|
2,2,6.9|
];
constraint_x6_x2=[
0,0,7.8|
0,1,4.6|
0,2,7.4|
1,0,3.6|
1,1,9.1|
1,2,4.8|
2,0,7.9|
2,1,5.7|
2,2,6|
];
constraint_x6_x3=[
0,0,7.1|
0,1,4.3|
0,2,6.5|
1,0,1|
1,1,7.6|
1,2,6.9|
2,0,2.8|
2,1,8.8|
2,2,3|
];
constraint_x6_x5=[
0,0,2.7|
0,1,3.3|
0,2,1.4|
1,0,9.6|
1,1,3.4|
1,2,5.6|
2,0,9.8|
2,1,5.1|
2,2,4.5|
];
constraint_x7_x3=[
0,0,8.9|
0,1,5.2|
0,2,7.5|
1,0,3.3|
1,1,2.9|
1,2,5.5|
2,0,1.3|
2,1,9.3|
2,2,4.4|
];
constraint_x7_x4=[
0,0,9.7|
0,1,0.21|
0,2,3.9|
1,0,3.4|
1,1,8.5|
1,2,7.8|
2,0,6.3|
2,1,9.3|
2,2,6.2|
];
constraint_x7_x5=[
0,0,4.3|
0,1,2.5|
0,2,0.042|
1,0,4.2|
1,1,0.62|
1,2,3.6|
2,0,0.44|
2,1,5.9|
2,2,8.7|
];
constraint_x8_x1=[
0,0,5.4|
0,1,0.31|
0,2,8.2|
1,0,7.6|
1,1,3.7|
1,2,4.6|
2,0,4.2|
2,1,0.75|
2,2,2.6|
];
constraint_x8_x2=[
0,0,1.8|
0,1,6.1|
0,2,8.5|
1,0,9.9|
1,1,8.8|
1,2,6.1|
2,0,9.2|
2,1,1.8|
2,2,5.2|
];
constraint_x8_x4=[
0,0,3.2|
0,1,7.3|
0,2,0.63|
1,0,4|
1,1,9.9|
1,2,5.9|
2,0,0.59|
2,1,1.7|
2,2,4.9|
];
constraint_x8_x5=[
0,0,10|
0,1,5.6|
0,2,0.18|
1,0,7|
1,1,4|
1,2,1.2|
2,0,1.3|
2,1,9.6|
2,2,9.2|
];
constraint_x8_x6=[
0,0,1.1|
0,1,5.8|
0,2,3.6|
1,0,2.4|
1,1,2.8|
1,2,9.5|
2,0,4.2|
2,1,0.38|
2,2,9.9|
];
constraint_x8_x7=[
0,0,2.9|
0,1,5|
0,2,8.7|
1,0,6.4|
1,1,8.1|
1,2,1.5|
2,0,4.3|
2,1,1.5|
2,2,4.9|
];
constraint_x9_x3=[
0,0,3|
0,1,7.6|
0,2,7.6|
1,0,9|
1,1,9.7|
1,2,4.8|
2,0,1|
2,1,5.1|
2,2,0.26|
];
constraint_x9_x4=[
0,0,7.6|
0,1,7.2|
0,2,5.2|
1,0,5.7|
1,1,3.2|
1,2,0.25|
2,0,9.3|
2,1,4.3|
2,2,3.8|
];
constraint_x10_x1=[
0,0,7|
0,1,5.1|
0,2,0.86|
1,0,3.7|
1,1,1.6|
1,2,8.9|
2,0,5.8|
2,1,5.2|
2,2,4.8|
];
constraint_x10_x4=[
0,0,6.6|
0,1,0.23|
0,2,2.6|
1,0,9.8|
1,1,5.8|
1,2,4.8|
2,0,1.4|
2,1,8.5|
2,2,2.4|
];
constraint_x10_x5=[
0,0,7.9|
0,1,1.3|
0,2,8.8|
1,0,6.9|
1,1,6.2|
1,2,8.3|
2,0,6|
2,1,2.3|
2,2,5.7|
];
constraint_x10_x8=[
0,0,9|
0,1,1.1|
0,2,9.3|
1,0,3.9|
1,1,0.63|
1,2,2.3|
2,0,2.8|
2,1,5.2|
2,2,3.7|
];
constraint_x10_x9=[
0,0,4.2|
0,1,3.3|
0,2,5.1|
1,0,0.98|
1,1,9.9|
1,2,2.3|
2,0,0.1|
2,1,3.6|
2,2,5.2|
];
constraint_x1_y1=[
0,0,9|
0,1,3.9|
0,2,4|
1,0,8.5|
1,1,3.1|
1,2,1.3|
2,0,6.6|
2,1,4.1|
2,2,5.1|
];
constraint_x2_y2=[
0,0,7|
0,1,7.2|
0,2,0.0012|
1,0,6|
1,1,9.2|
1,2,9.7|
2,0,4.8|
2,1,5.9|
2,2,3.8|
];
constraint_x3_y3=[
0,0,0.96|
0,1,2.6|
0,2,1.4|
1,0,0.35|
1,1,7.3|
1,2,3|
2,0,9.9|
2,1,0.27|
2,2,7.3|
];
constraint_x4_y4=[
0,0,6.6|
0,1,4.8|
0,2,9.5|
1,0,2.9|
1,1,6.6|
1,2,1.8|
2,0,1.1|
2,1,2|
2,2,7.6|
];
constraint_x5_y5=[
0,0,8.4|
0,1,0.11|
0,2,9.7|
1,0,5.8|
1,1,6.6|
1,2,4.8|
2,0,2.4|
2,1,7.6|
2,2,2|
];
initial_distribution_y1=[0.0088,0.59,0.41];
initial_distribution_y2=[0.48,0.12,0.4];
initial_distribution_y3=[0.043,0.75,0.2];
initial_distribution_y4=[0.48,0.32,0.2];
initial_distribution_y5=[0.58,0.2,0.22];
transition_y1=[
0.23,0.34,0.43|
0.23,0.19,0.58|
0.58,0.39,0.028|
];
transition_y2=[
0.47,0.071,0.46|
0.42,0.23,0.35|
0.072,0.37,0.55|
];
transition_y3=[
0.58,0.079,0.35|
0.35,0.41,0.24|
0.47,0.48,0.047|
];
transition_y4=[
0.59,0.24,0.17|
0.57,0.057,0.37|
0.29,0.51,0.21|
];
transition_y5=[
0.16,0.45,0.39|
0.48,0.072,0.44|
0.47,0.15,0.38|
];
